(set-logic BV) (define-fun origCir ((n200 Bool) (n215 Bool) (n209 Bool) (i22 Bool)) Bool (and (not (and (and n215 n209) n200)) i22)) (synth-fun skel ((n200 Bool) (n215 Bool) (n209 Bool) (i22 Bool)) Bool) (declare-var n200 Bool) (declare-var n215 Bool) (declare-var n209 Bool) (declare-var i22 Bool) (constraint (= (origCir n200 n215 n209 i22) (skel n200 n215 n209 i22))) (check-synth)
